JulietBench/Juliet_Based_Patch_Bench/linux/CWE-189-Numeric-Errors/CVE_2010_4160_8acfe468b0384e834a303f08ebc4953d72fb690a/solveriov_from_user_compat_to_kern_Snippet_patch1.smt2
; benchmark generated from python API
(set-info :status unknown)
(declare-fun rdi () (_ BitVec 64))
(declare-fun R () (_ BitVec 32))
(assert
 (let ((?x6 ((_ extract 31 0) rdi)))
 (let ((?x11 (bvadd (_ bv4294967295 32) ?x6)))
 (let (($x70 (= R ?x11)))
 (let ((?x15 (bvsub (_ bv2147483647 32) ?x6)))
 (let (($x20 (bvule (_ bv4294967295 32) ?x15)))
 (let (($x73 (and $x20 $x70)))
 (let (($x71 (= (_ bv2147483647 32) R)))
 (let (($x56 (bvugt (_ bv4294967295 32) ?x15)))
 (let (($x72 (and $x56 $x71)))
 (let (($x74 (or $x72 $x73)))
 (let (($x77 (not $x74)))
 (let (($x76 (and (distinct R ?x11) true)))
 (let (($x78 (and $x76 $x77)))
 (let (($x75 (and $x70 $x74)))
 (let (($x79 (or $x75 $x78)))
 (not $x79)))))))))))))))))
(check-sat)
